(set-info :smt-lib-version 2.6)
(set-logic UF)
(set-info :source |Benchmarks from the paper: "Extending Sledgehammer with SMT Solvers" by Jasmin Blanchette, Sascha Bohme, and Lawrence C. Paulson, CADE 2011.  Translated to SMT2 by Andrew Reynolds and Morgan Deters.|)
(set-info :category "industrial")
(set-info :status unknown)
(declare-sort S1 0)
(declare-sort S2 0)
(declare-sort S3 0)
(declare-sort S4 0)
(declare-sort S5 0)
(declare-sort S6 0)
(declare-sort S7 0)
(declare-sort S8 0)
(declare-sort S9 0)
(declare-sort S10 0)
(declare-sort S11 0)
(declare-fun f1 () S1)
(declare-fun f2 () S1)
(declare-fun f3 (S2 S3) S1)
(declare-fun f4 (S3) S2)
(declare-fun f5 () S3)
(declare-fun f6 (S4 S3) S3)
(declare-fun f7 (S5 S3) S4)
(declare-fun f8 () S5)
(declare-fun f9 () S5)
(declare-fun f10 () S4)
(declare-fun f11 () S4)
(declare-fun f12 () S4)
(declare-fun f13 () S3)
(declare-fun f14 () S3)
(declare-fun f15 () S3)
(declare-fun f16 (S3) S1)
(declare-fun f17 (S6 S7) S7)
(declare-fun f18 (S8 S7) S6)
(declare-fun f19 () S8)
(declare-fun f20 () S7)
(declare-fun f21 (S9 S3) S7)
(declare-fun f22 () S9)
(declare-fun f23 () S8)
(declare-fun f24 () S7)
(declare-fun f25 (S10 S7) S1)
(declare-fun f26 (S7) S10)
(declare-fun f27 () S5)
(declare-fun f28 () S3)
(declare-fun f29 (S3) S2)
(declare-fun f30 (S11 S7) S10)
(assert (not (= f1 f2)))
(assert (not (= (f3 (f4 f5) (f6 (f7 f8 (f6 (f7 f9 (f6 f10 (f6 f11 (f6 f11 (f6 f12 f13))))) f14)) f15)) f1)))
(assert (= (f16 (f6 (f7 f8 (f6 (f7 f9 (f6 f10 (f6 f11 (f6 f11 (f6 f12 f13))))) f14)) f15)) f1))
(assert (= (f16 (f6 (f7 f8 (f6 (f7 f9 (f6 f10 (f6 f11 (f6 f11 (f6 f12 f13))))) f14)) f15)) f1))
(assert (forall ((?v0 S3)) (= (f6 (f7 f8 f15) (f6 f10 ?v0)) (f6 f10 (f6 (f7 f8 (f6 f12 f13)) ?v0)))))
(assert (forall ((?v0 S3)) (= (f6 (f7 f8 (f6 f10 ?v0)) f15) (f6 f10 (f6 (f7 f8 ?v0) (f6 f12 f13))))))
(assert (forall ((?v0 S3)) (= (= (f3 (f4 f15) (f6 f10 ?v0)) f1) (= (f3 (f4 (f6 f12 f13)) ?v0) f1))))
(assert (forall ((?v0 S3)) (= (= (f3 (f4 (f6 f10 ?v0)) f15) f1) (= (f3 (f4 ?v0) (f6 f12 f13)) f1))))
(assert (= (f6 (f7 f8 f15) f15) (f6 f10 (f6 f11 (f6 f12 f13)))))
(assert (= (f17 (f18 f19 f20) f20) (f21 f22 (f6 f11 (f6 f12 f13)))))
(assert (= (f6 (f7 f8 f15) f15) (f6 f10 (f6 f11 (f6 f12 f13)))))
(assert (forall ((?v0 S3)) (= (f6 (f7 f9 ?v0) (f6 f10 (f6 f11 (f6 f12 f13)))) (f6 (f7 f8 ?v0) ?v0))))
(assert (forall ((?v0 S7)) (= (f17 (f18 f23 ?v0) (f21 f22 (f6 f11 (f6 f12 f13)))) (f17 (f18 f19 ?v0) ?v0))))
(assert (forall ((?v0 S3)) (= (f6 (f7 f9 ?v0) (f6 f10 (f6 f11 (f6 f12 f13)))) (f6 (f7 f8 ?v0) ?v0))))
(assert (forall ((?v0 S3)) (= (f6 (f7 f9 (f6 f10 (f6 f11 (f6 f12 f13)))) ?v0) (f6 (f7 f8 ?v0) ?v0))))
(assert (forall ((?v0 S7)) (= (f17 (f18 f23 (f21 f22 (f6 f11 (f6 f12 f13)))) ?v0) (f17 (f18 f19 ?v0) ?v0))))
(assert (forall ((?v0 S3)) (= (f6 (f7 f9 (f6 f10 (f6 f11 (f6 f12 f13)))) ?v0) (f6 (f7 f8 ?v0) ?v0))))
(assert (forall ((?v0 S3)) (= (= (f3 (f4 f5) (f6 f10 ?v0)) f1) (= (f3 (f4 f13) ?v0) f1))))
(assert (forall ((?v0 S3)) (= (= (f3 (f4 (f6 f10 ?v0)) f5) f1) (= (f3 (f4 ?v0) f13) f1))))
(assert (forall ((?v0 S3) (?v1 S3)) (= (= (f6 f10 ?v0) (f6 f10 ?v1)) (= ?v0 ?v1))))
(assert (forall ((?v0 S3) (?v1 S7)) (let ((?v_0 (f21 f22 ?v0))) (= (= ?v_0 ?v1) (= ?v1 ?v_0)))))
(assert (forall ((?v0 S3) (?v1 S3)) (let ((?v_0 (f6 f10 ?v0))) (= (= ?v_0 ?v1) (= ?v1 ?v_0)))))
(assert (forall ((?v0 S3) (?v1 S3)) (= (= (f6 f12 ?v0) (f6 f12 ?v1)) (= ?v0 ?v1))))
(assert (= (= f13 f13) true))
(assert (forall ((?v0 S3) (?v1 S3)) (= (= (f6 f11 ?v0) (f6 f11 ?v1)) (= ?v0 ?v1))))
(assert (forall ((?v0 S3) (?v1 S3)) (or (= (f3 (f4 ?v0) ?v1) f1) (or (= ?v0 ?v1) (= (f3 (f4 ?v1) ?v0) f1)))))
(assert (forall ((?v0 S3) (?v1 S3) (?v2 S3)) (let ((?v_0 (f7 f9 ?v0))) (= (f6 (f7 f9 (f6 ?v_0 ?v1)) ?v2) (f6 ?v_0 (f6 (f7 f9 ?v1) ?v2))))))
(assert (forall ((?v0 S3) (?v1 S3)) (= (f6 (f7 f9 ?v0) ?v1) (f6 (f7 f9 ?v1) ?v0))))
(assert (forall ((?v0 S3)) (= (f6 f10 ?v0) ?v0)))
(assert (forall ((?v0 S3) (?v1 S3) (?v2 S3)) (let ((?v_0 (f7 f8 ?v0))) (= (f6 (f7 f8 (f6 ?v_0 ?v1)) ?v2) (f6 ?v_0 (f6 (f7 f8 ?v1) ?v2))))))
(assert (forall ((?v0 S3) (?v1 S3) (?v2 S3)) (let ((?v_1 (f7 f8 ?v0)) (?v_0 (f7 f8 ?v1))) (= (f6 ?v_1 (f6 ?v_0 ?v2)) (f6 ?v_0 (f6 ?v_1 ?v2))))))
(assert (forall ((?v0 S3) (?v1 S3)) (= (f6 (f7 f8 ?v0) ?v1) (f6 (f7 f8 ?v1) ?v0))))
(assert (forall ((?v0 S3)) (= (= (f6 (f7 f8 ?v0) ?v0) f5) (= ?v0 f5))))
(assert (forall ((?v0 S3)) (= (= (f6 f12 ?v0) f13) false)))
(assert (forall ((?v0 S3)) (= (= f13 (f6 f12 ?v0)) false)))
(assert (forall ((?v0 S3) (?v1 S3)) (= (= (f6 f12 ?v0) (f6 f11 ?v1)) false)))
(assert (forall ((?v0 S3) (?v1 S3)) (= (= (f6 f11 ?v0) (f6 f12 ?v1)) false)))
(assert (= f13 f5))
(assert (forall ((?v0 S3)) (= (= (f6 f11 ?v0) f13) (= ?v0 f13))))
(assert (forall ((?v0 S3)) (= (= f13 (f6 f11 ?v0)) (= f13 ?v0))))
(assert (= (f6 f11 f13) f13))
(assert (forall ((?v0 S3) (?v1 S3)) (= (= (f3 (f4 (f6 f12 ?v0)) (f6 f12 ?v1)) f1) (= (f3 (f4 ?v0) ?v1) f1))))
(assert (forall ((?v0 S3) (?v1 S3)) (= (= (f3 (f4 (f6 f12 ?v0)) (f6 f12 ?v1)) f1) (= (f3 (f4 ?v0) ?v1) f1))))
(assert (= (= (f3 (f4 f13) f13) f1) false))
(assert (forall ((?v0 S3) (?v1 S3)) (= (= (f3 (f4 (f6 f11 ?v0)) (f6 f11 ?v1)) f1) (= (f3 (f4 ?v0) ?v1) f1))))
(assert (forall ((?v0 S3) (?v1 S3)) (= (= (f3 (f4 (f6 f11 ?v0)) (f6 f11 ?v1)) f1) (= (f3 (f4 ?v0) ?v1) f1))))
(assert (not (= f5 f15)))
(assert (forall ((?v0 S3)) (= (f6 (f7 f9 f13) ?v0) f13)))
(assert (forall ((?v0 S3) (?v1 S3)) (= (f6 (f7 f9 (f6 f11 ?v0)) ?v1) (f6 f11 (f6 (f7 f9 ?v0) ?v1)))))
(assert (forall ((?v0 S3)) (= (f6 (f7 f8 ?v0) f13) ?v0)))
(assert (forall ((?v0 S3)) (= (f6 (f7 f8 f13) ?v0) ?v0)))
(assert (forall ((?v0 S3)) (= (f6 (f7 f8 ?v0) f5) ?v0)))
(assert (forall ((?v0 S3)) (= (f6 (f7 f8 f5) ?v0) ?v0)))
(assert (forall ((?v0 S3) (?v1 S3)) (= (f6 (f7 f8 (f6 f11 ?v0)) (f6 f11 ?v1)) (f6 f11 (f6 (f7 f8 ?v0) ?v1)))))
(assert (forall ((?v0 S3)) (= (f6 f11 ?v0) (f6 (f7 f8 ?v0) ?v0))))
(assert (forall ((?v0 S3) (?v1 S3)) (= (= (f3 (f4 (f6 f10 ?v0)) (f6 f10 ?v1)) f1) (= (f3 (f4 ?v0) ?v1) f1))))
(assert (forall ((?v0 S3)) (= (f6 (f7 f9 ?v0) f15) ?v0)))
(assert (forall ((?v0 S3)) (= (f6 (f7 f9 f15) ?v0) ?v0)))
(assert (forall ((?v0 S3) (?v1 S3) (?v2 S3)) (=> (= (f3 (f4 ?v0) ?v1) f1) (= (f3 (f4 (f6 (f7 f8 ?v0) ?v2)) (f6 (f7 f8 ?v1) ?v2)) f1))))
(assert (forall ((?v0 S3) (?v1 S3)) (= (f6 (f7 f9 (f6 f10 ?v0)) (f6 f10 ?v1)) (f6 f10 (f6 (f7 f9 ?v0) ?v1)))))
(assert (forall ((?v0 S3) (?v1 S3) (?v2 S3)) (= (f6 (f7 f9 (f6 (f7 f8 ?v0) ?v1)) ?v2) (f6 (f7 f8 (f6 (f7 f9 ?v0) ?v2)) (f6 (f7 f9 ?v1) ?v2)))))
(assert (forall ((?v0 S3) (?v1 S3) (?v2 S3)) (let ((?v_0 (f7 f9 ?v0))) (= (f6 ?v_0 (f6 (f7 f8 ?v1) ?v2)) (f6 (f7 f8 (f6 ?v_0 ?v1)) (f6 ?v_0 ?v2))))))
(assert (forall ((?v0 S3) (?v1 S3)) (= (f6 (f7 f8 (f6 f10 ?v0)) (f6 f10 ?v1)) (f6 f10 (f6 (f7 f8 ?v0) ?v1)))))
(assert (forall ((?v0 S3)) (= (= (f3 (f4 (f6 (f7 f8 ?v0) ?v0)) f5) f1) (= (f3 (f4 ?v0) f5) f1))))
(assert (forall ((?v0 S7) (?v1 S7) (?v2 S3)) (let ((?v_0 (f21 f22 ?v2))) (= (f17 (f18 f23 (f17 (f18 f19 ?v0) ?v1)) ?v_0) (f17 (f18 f19 (f17 (f18 f23 ?v0) ?v_0)) (f17 (f18 f23 ?v1) ?v_0))))))
(assert (forall ((?v0 S3) (?v1 S3) (?v2 S3)) (let ((?v_0 (f6 f10 ?v2))) (= (f6 (f7 f9 (f6 (f7 f8 ?v0) ?v1)) ?v_0) (f6 (f7 f8 (f6 (f7 f9 ?v0) ?v_0)) (f6 (f7 f9 ?v1) ?v_0))))))
(assert (forall ((?v0 S3) (?v1 S7) (?v2 S7)) (let ((?v_0 (f18 f23 (f21 f22 ?v0)))) (= (f17 ?v_0 (f17 (f18 f19 ?v1) ?v2)) (f17 (f18 f19 (f17 ?v_0 ?v1)) (f17 ?v_0 ?v2))))))
(assert (forall ((?v0 S3) (?v1 S3) (?v2 S3)) (let ((?v_0 (f7 f9 (f6 f10 ?v0)))) (= (f6 ?v_0 (f6 (f7 f8 ?v1) ?v2)) (f6 (f7 f8 (f6 ?v_0 ?v1)) (f6 ?v_0 ?v2))))))
(assert (= (f21 f22 f13) f24))
(assert (= (f6 f10 f13) f5))
(assert (= (f6 f10 f13) f5))
(assert (forall ((?v0 S3)) (= (f6 (f7 f8 (f6 f10 f13)) ?v0) ?v0)))
(assert (forall ((?v0 S3)) (= (f6 (f7 f8 ?v0) (f6 f10 f13)) ?v0)))
(assert (forall ((?v0 S3) (?v1 S3)) (= (= (f3 (f4 (f6 f10 ?v0)) (f6 f10 ?v1)) f1) (= (f3 (f4 ?v0) ?v1) f1))))
(assert (forall ((?v0 S3) (?v1 S3) (?v2 S3)) (= (f6 (f7 f9 (f6 f10 ?v0)) (f6 (f7 f9 (f6 f10 ?v1)) ?v2)) (f6 (f7 f9 (f6 f10 (f6 (f7 f9 ?v0) ?v1))) ?v2))))
(assert (forall ((?v0 S3) (?v1 S3)) (= (f6 (f7 f9 (f6 f10 ?v0)) (f6 f10 ?v1)) (f6 f10 (f6 (f7 f9 ?v0) ?v1)))))
(assert (forall ((?v0 S3) (?v1 S3)) (= (f6 f10 (f6 (f7 f9 ?v0) ?v1)) (f6 (f7 f9 (f6 f10 ?v0)) (f6 f10 ?v1)))))
(assert (forall ((?v0 S3) (?v1 S3) (?v2 S3)) (= (f6 (f7 f8 (f6 f10 ?v0)) (f6 (f7 f8 (f6 f10 ?v1)) ?v2)) (f6 (f7 f8 (f6 f10 (f6 (f7 f8 ?v0) ?v1))) ?v2))))
(assert (forall ((?v0 S3) (?v1 S3)) (= (f6 (f7 f8 (f6 f10 ?v0)) (f6 f10 ?v1)) (f6 f10 (f6 (f7 f8 ?v0) ?v1)))))
(assert (forall ((?v0 S3) (?v1 S3)) (= (f6 f10 (f6 (f7 f8 ?v0) ?v1)) (f6 (f7 f8 (f6 f10 ?v0)) (f6 f10 ?v1)))))
(assert (forall ((?v0 S3)) (= (= (f3 (f4 (f6 f12 ?v0)) f13) f1) (= (f3 (f4 ?v0) f13) f1))))
(assert (forall ((?v0 S3)) (= (= (f3 (f4 (f6 f12 ?v0)) f5) f1) (= (f3 (f4 ?v0) f5) f1))))
(assert (forall ((?v0 S3) (?v1 S3)) (= (= (f3 (f4 (f6 f12 ?v0)) (f6 f11 ?v1)) f1) (= (f3 (f4 ?v0) ?v1) f1))))
(assert (forall ((?v0 S3) (?v1 S3)) (= (= (f3 (f4 (f6 f12 ?v0)) (f6 f11 ?v1)) f1) (= (f3 (f4 ?v0) ?v1) f1))))
(assert (= (= (f3 (f4 f13) f5) f1) false))
(assert (forall ((?v0 S3)) (= (= (f3 (f4 (f6 f11 ?v0)) f13) f1) (= (f3 (f4 ?v0) f13) f1))))
(assert (forall ((?v0 S3)) (let ((?v_0 (f4 f13))) (= (= (f3 ?v_0 (f6 f11 ?v0)) f1) (= (f3 ?v_0 ?v0) f1)))))
(assert (forall ((?v0 S3)) (= (= (f3 (f4 (f6 f11 ?v0)) f5) f1) (= (f3 (f4 ?v0) f5) f1))))
(assert (= f5 (f6 f10 f13)))
(assert (forall ((?v0 S3) (?v1 S3)) (= (f6 (f7 f8 (f6 f12 ?v0)) (f6 f11 ?v1)) (f6 f12 (f6 (f7 f8 ?v0) ?v1)))))
(assert (forall ((?v0 S3) (?v1 S3)) (= (f6 (f7 f8 (f6 f11 ?v0)) (f6 f12 ?v1)) (f6 f12 (f6 (f7 f8 ?v0) ?v1)))))
(assert (= (f3 (f4 f5) f15) f1))
(assert (forall ((?v0 S3) (?v1 S3) (?v2 S3)) (let ((?v_0 (f7 f9 ?v2))) (=> (= (f3 (f4 ?v0) ?v1) f1) (=> (= (f3 (f4 f5) ?v2) f1) (= (f3 (f4 (f6 ?v_0 ?v0)) (f6 ?v_0 ?v1)) f1))))))
(assert (forall ((?v0 S3)) (= (f6 f12 ?v0) (f6 (f7 f8 (f6 (f7 f8 f15) ?v0)) ?v0))))
(assert (forall ((?v0 S3)) (not (= (f6 (f7 f8 (f6 (f7 f8 f15) ?v0)) ?v0) f5))))
(assert (forall ((?v0 S3) (?v1 S3)) (let ((?v_0 (f4 ?v0))) (= (= (f3 ?v_0 (f6 (f7 f8 ?v1) f15)) f1) (or (= (f3 ?v_0 ?v1) f1) (= ?v0 ?v1))))))
(assert (forall ((?v0 S3)) (let ((?v_0 (f6 f10 ?v0))) (= (f6 f10 (f6 f11 ?v0)) (f6 (f7 f8 (f6 (f7 f8 f5) ?v_0)) ?v_0)))))
(assert (forall ((?v0 S3)) (let ((?v_0 (f6 f10 ?v0))) (= (f6 f10 (f6 f12 ?v0)) (f6 (f7 f8 (f6 (f7 f8 f15) ?v_0)) ?v_0)))))
(assert (forall ((?v0 S3)) (= (f6 (f7 f9 (f6 f10 (f6 f12 f13))) ?v0) ?v0)))
(assert (forall ((?v0 S3)) (= (f6 (f7 f9 ?v0) (f6 f10 (f6 f12 f13))) ?v0)))
(assert (= (f21 f22 (f6 f12 f13)) f20))
(assert (= (f6 f10 (f6 f12 f13)) f15))
(assert (= (f6 f10 (f6 f12 f13)) f15))
(assert (= f15 (f6 f10 (f6 f12 f13))))
(assert (forall ((?v0 S3) (?v1 S3)) (= (f6 (f7 f9 (f6 f12 ?v0)) ?v1) (f6 (f7 f8 (f6 f11 (f6 (f7 f9 ?v0) ?v1))) ?v1))))
(assert (forall ((?v0 S3) (?v1 S3)) (=> (= (f3 (f4 f5) ?v0) f1) (= (= (f6 (f7 f9 ?v0) ?v1) f15) (and (= ?v0 f15) (= ?v1 f15))))))
(assert (forall ((?v0 S3)) (= (= (f3 (f4 (f6 (f7 f8 (f6 (f7 f8 f15) ?v0)) ?v0)) f5) f1) (= (f3 (f4 ?v0) f5) f1))))
(assert (forall ((?v0 S3)) (= (f6 (f7 f9 (f6 (f7 f8 f15) f15)) (f6 f10 ?v0)) (f6 f10 (f6 f11 ?v0)))))
(assert (= (f16 (f6 f10 (f6 f11 (f6 f12 f13)))) f1))
(assert (= f15 (f6 f10 (f6 f12 f13))))
(assert (= (f25 (f26 f24) (f17 (f18 f19 f20) f20)) f1))
(assert (= (f3 (f4 f5) (f6 (f7 f8 f15) f15)) f1))
(assert (forall ((?v0 S3) (?v1 S3)) (= (= (f3 (f4 f5) (f6 (f7 f8 (f6 (f7 f9 ?v0) ?v0)) (f6 (f7 f9 ?v1) ?v1))) f1) (or (not (= ?v0 f5)) (not (= ?v1 f5))))))
(assert (forall ((?v0 S3) (?v1 S3)) (not (= (f3 (f4 (f6 (f7 f8 (f6 (f7 f9 ?v0) ?v0)) (f6 (f7 f9 ?v1) ?v1))) f5) f1))))
(assert (forall ((?v0 S3) (?v1 S3) (?v2 S2)) (=> (= (f3 (f4 ?v0) ?v1) f1) (=> (= (f3 ?v2 (f6 (f7 f8 ?v0) f15)) f1) (=> (forall ((?v3 S3)) (=> (= (f3 (f4 ?v0) ?v3) f1) (=> (= (f3 ?v2 ?v3) f1) (= (f3 ?v2 (f6 (f7 f8 ?v3) f15)) f1)))) (= (f3 ?v2 ?v1) f1))))))
(assert (= (f6 (f7 f27 (f6 f10 f28)) (f6 (f7 f8 (f6 (f7 f9 (f6 f10 (f6 f11 (f6 f11 (f6 f12 f13))))) f14)) f15)) f15))
(assert (forall ((?v0 S3) (?v1 S3)) (let ((?v_1 (f21 f22 ?v0)) (?v_0 (f21 f22 ?v1))) (= (f17 (f18 f19 ?v_1) ?v_0) (ite (= (f3 (f4 ?v0) f13) f1) ?v_0 (ite (= (f3 (f4 ?v1) f13) f1) ?v_1 (f21 f22 (f6 (f7 f8 ?v0) ?v1))))))))
(assert (forall ((?v0 S3) (?v1 S3)) (let ((?v_0 (f4 f5))) (=> (= (f3 ?v_0 ?v0) f1) (=> (= (f3 ?v_0 (f6 (f7 f9 ?v0) ?v1)) f1) (= (f3 ?v_0 ?v1) f1))))))
(assert (forall ((?v0 S3) (?v1 S3) (?v2 S7)) (= (f17 (f18 f23 (f21 f22 ?v0)) (f17 (f18 f23 (f21 f22 ?v1)) ?v2)) (ite (= (f3 (f4 ?v0) f13) f1) f24 (f17 (f18 f23 (f21 f22 (f6 (f7 f9 ?v0) ?v1))) ?v2)))))
(assert (forall ((?v0 S3) (?v1 S3)) (= (f17 (f18 f23 (f21 f22 ?v0)) (f21 f22 ?v1)) (ite (= (f3 (f4 ?v0) f13) f1) f24 (f21 f22 (f6 (f7 f9 ?v0) ?v1))))))
(assert (= (= f28 f28) true))
(assert (= (f6 f12 f28) f28))
(assert (forall ((?v0 S3)) (= (= f28 (f6 f12 ?v0)) (= f28 ?v0))))
(assert (forall ((?v0 S3)) (= (= (f6 f12 ?v0) f28) (= ?v0 f28))))
(assert (= (= f28 f13) false))
(assert (= (= f13 f28) false))
(assert (forall ((?v0 S3)) (= (= f28 (f6 f11 ?v0)) false)))
(assert (forall ((?v0 S3)) (= (= (f6 f11 ?v0) f28) false)))
(assert (= (= (f3 (f4 f28) f28) f1) false))
(assert (not (= (f6 f10 f13) (f6 f10 f28))))
(assert (forall ((?v0 S3)) (let ((?v_0 (f4 f28))) (= (= (f3 ?v_0 (f6 f12 ?v0)) f1) (= (f3 ?v_0 ?v0) f1)))))
(assert (forall ((?v0 S3)) (= (= (f3 (f4 (f6 f12 ?v0)) f28) f1) (= (f3 (f4 ?v0) f28) f1))))
(assert (= (= (f3 (f4 f28) f13) f1) true))
(assert (= (= (f3 (f4 f13) f28) f1) false))
(assert (= (= (f3 (f4 f28) f5) f1) true))
(assert (forall ((?v0 S3)) (let ((?v_0 (f4 f28))) (= (= (f3 ?v_0 (f6 f11 ?v0)) f1) (= (f3 ?v_0 ?v0) f1)))))
(assert (forall ((?v0 S3) (?v1 S3)) (let ((?v_0 (f6 f10 f28))) (= (= (f6 (f7 f9 ?v0) ?v1) f15) (or (and (= ?v0 f15) (= ?v1 f15)) (and (= ?v0 ?v_0) (= ?v1 ?v_0)))))))
(assert (forall ((?v0 S3) (?v1 S3)) (=> (= (f6 (f7 f9 ?v0) ?v1) f15) (or (= ?v0 f15) (= ?v0 (f6 f10 f28))))))
(assert (forall ((?v0 S3) (?v1 S3)) (=> (not (= ?v0 ?v1)) (=> (=> (= (f3 (f4 ?v0) ?v1) f1) false) (=> (=> (= (f3 (f4 ?v1) ?v0) f1) false) false)))))
(assert (= (f21 f22 f13) f24))
(assert (= f24 (f21 f22 f13)))
(assert (forall ((?v0 S3)) (let ((?v_0 (f6 (f7 f8 (f6 (f7 f9 (f6 f10 (f6 f11 (f6 f11 (f6 f12 f13))))) ?v0)) f15))) (=> (= (f16 ?v_0) f1) (= (f6 (f7 f27 (f6 f10 f28)) ?v_0) f15)))))
(assert (forall ((?v0 S7)) (= (f17 (f18 f23 f24) ?v0) f24)))
(assert (forall ((?v0 S3)) (= (f6 (f7 f9 f5) ?v0) f5)))
(assert (forall ((?v0 S7)) (= (f17 (f18 f23 ?v0) f24) f24)))
(assert (forall ((?v0 S3)) (= (f6 (f7 f9 ?v0) f5) f5)))
(assert (forall ((?v0 S3) (?v1 S3)) (= (= (f6 (f7 f9 ?v0) ?v1) f5) (or (= ?v0 f5) (= ?v1 f5)))))
(assert (forall ((?v0 S7) (?v1 S7)) (=> (not (= ?v0 f24)) (=> (not (= ?v1 f24)) (not (= (f17 (f18 f23 ?v0) ?v1) f24))))))
(assert (forall ((?v0 S3) (?v1 S3)) (=> (not (= ?v0 f5)) (=> (not (= ?v1 f5)) (not (= (f6 (f7 f9 ?v0) ?v1) f5))))))
(assert (forall ((?v0 S7) (?v1 S7)) (=> (= (f17 (f18 f23 ?v0) ?v1) f24) (or (= ?v0 f24) (= ?v1 f24)))))
(assert (forall ((?v0 S3) (?v1 S3)) (=> (= (f6 (f7 f9 ?v0) ?v1) f5) (or (= ?v0 f5) (= ?v1 f5)))))
(assert (not (= f20 f24)))
(assert (not (= f15 f5)))
(assert (not (= f24 f20)))
(assert (not (= f5 f15)))
(assert (forall ((?v0 S7) (?v1 S7) (?v2 S7)) (= (f17 (f18 f23 (f17 (f18 f19 ?v0) ?v1)) ?v2) (f17 (f18 f19 (f17 (f18 f23 ?v0) ?v2)) (f17 (f18 f23 ?v1) ?v2)))))
(assert (forall ((?v0 S3) (?v1 S3) (?v2 S3)) (= (f6 (f7 f9 (f6 (f7 f8 ?v0) ?v1)) ?v2) (f6 (f7 f8 (f6 (f7 f9 ?v0) ?v2)) (f6 (f7 f9 ?v1) ?v2)))))
(assert (forall ((?v0 S7) (?v1 S7) (?v2 S7) (?v3 S7)) (= (f17 (f18 f19 (f17 (f18 f23 ?v0) ?v1)) (f17 (f18 f19 (f17 (f18 f23 ?v2) ?v1)) ?v3)) (f17 (f18 f19 (f17 (f18 f23 (f17 (f18 f19 ?v0) ?v2)) ?v1)) ?v3))))
(assert (forall ((?v0 S3) (?v1 S3) (?v2 S3) (?v3 S3)) (= (f6 (f7 f8 (f6 (f7 f9 ?v0) ?v1)) (f6 (f7 f8 (f6 (f7 f9 ?v2) ?v1)) ?v3)) (f6 (f7 f8 (f6 (f7 f9 (f6 (f7 f8 ?v0) ?v2)) ?v1)) ?v3))))
(assert (= f20 (f21 f22 (f6 f12 f13))))
(assert (= (f21 f22 (f6 f12 f13)) f20))
(assert (forall ((?v0 S3) (?v1 S3)) (= (= (f25 (f26 (f21 f22 ?v0)) (f21 f22 ?v1)) f1) (ite (= (f3 (f4 ?v0) ?v1) f1) (= (f3 (f4 f13) ?v1) f1) false))))
(assert (forall ((?v0 S3)) (= (= (f25 (f26 f24) (f21 f22 ?v0)) f1) (= (f3 (f4 f13) ?v0) f1))))
(assert (forall ((?v0 S3)) (not (= (f3 (f4 (f6 (f7 f9 ?v0) ?v0)) f5) f1))))
(assert (forall ((?v0 S3) (?v1 S3) (?v2 S3)) (= (= (f3 (f4 (f6 (f7 f9 ?v0) ?v1)) (f6 (f7 f9 ?v2) ?v1)) f1) (or (and (= (f3 (f4 f5) ?v1) f1) (= (f3 (f4 ?v0) ?v2) f1)) (and (= (f3 (f4 ?v1) f5) f1) (= (f3 (f4 ?v2) ?v0) f1))))))
(assert (forall ((?v0 S3) (?v1 S3) (?v2 S3)) (let ((?v_0 (f7 f9 ?v0))) (= (= (f3 (f4 (f6 ?v_0 ?v1)) (f6 ?v_0 ?v2)) f1) (or (and (= (f3 (f4 f5) ?v0) f1) (= (f3 (f4 ?v1) ?v2) f1)) (and (= (f3 (f4 ?v0) f5) f1) (= (f3 (f4 ?v2) ?v1) f1)))))))
(assert (forall ((?v0 S3) (?v1 S3) (?v2 S3)) (let ((?v_0 (f7 f9 ?v0))) (=> (= (f3 (f4 f5) ?v0) f1) (= (= (f3 (f4 (f6 ?v_0 ?v1)) (f6 ?v_0 ?v2)) f1) (= (f3 (f4 ?v1) ?v2) f1))))))
(assert (forall ((?v0 S7) (?v1 S7)) (let ((?v_0 (f26 f24))) (=> (= (f25 ?v_0 ?v0) f1) (=> (= (f25 ?v_0 ?v1) f1) (= (f25 ?v_0 (f17 (f18 f23 ?v0) ?v1)) f1))))))
(assert (forall ((?v0 S3) (?v1 S3)) (let ((?v_0 (f4 f5))) (=> (= (f3 ?v_0 ?v0) f1) (=> (= (f3 ?v_0 ?v1) f1) (= (f3 ?v_0 (f6 (f7 f9 ?v0) ?v1)) f1))))))
(assert (forall ((?v0 S7) (?v1 S7)) (=> (= (f25 (f26 f24) ?v0) f1) (=> (= (f25 (f26 ?v1) f24) f1) (= (f25 (f26 (f17 (f18 f23 ?v0) ?v1)) f24) f1)))))
(assert (forall ((?v0 S3) (?v1 S3)) (=> (= (f3 (f4 f5) ?v0) f1) (=> (= (f3 (f4 ?v1) f5) f1) (= (f3 (f4 (f6 (f7 f9 ?v0) ?v1)) f5) f1)))))
(assert (forall ((?v0 S7) (?v1 S7)) (=> (= (f25 (f26 f24) ?v0) f1) (=> (= (f25 (f26 ?v1) f24) f1) (= (f25 (f26 (f17 (f18 f23 ?v1) ?v0)) f24) f1)))))
(assert (forall ((?v0 S3) (?v1 S3)) (=> (= (f3 (f4 f5) ?v0) f1) (=> (= (f3 (f4 ?v1) f5) f1) (= (f3 (f4 (f6 (f7 f9 ?v1) ?v0)) f5) f1)))))
(assert (forall ((?v0 S7) (?v1 S7)) (let ((?v_0 (f26 f24))) (=> (= (f25 ?v_0 (f17 (f18 f23 ?v0) ?v1)) f1) (=> (= (f25 ?v_0 ?v0) f1) (= (f25 ?v_0 ?v1) f1))))))
(assert (forall ((?v0 S3) (?v1 S3)) (let ((?v_0 (f4 f5))) (=> (= (f3 ?v_0 (f6 (f7 f9 ?v0) ?v1)) f1) (=> (= (f3 ?v_0 ?v0) f1) (= (f3 ?v_0 ?v1) f1))))))
(assert (forall ((?v0 S7) (?v1 S7)) (let ((?v_0 (f26 f24))) (=> (= (f25 ?v_0 (f17 (f18 f23 ?v0) ?v1)) f1) (=> (= (f25 ?v_0 ?v1) f1) (= (f25 ?v_0 ?v0) f1))))))
(assert (forall ((?v0 S3) (?v1 S3)) (let ((?v_0 (f4 f5))) (=> (= (f3 ?v_0 (f6 (f7 f9 ?v0) ?v1)) f1) (=> (= (f3 ?v_0 ?v1) f1) (= (f3 ?v_0 ?v0) f1))))))
(assert (forall ((?v0 S3) (?v1 S3) (?v2 S3)) (let ((?v_0 (f7 f9 ?v0))) (=> (= (f3 (f4 ?v0) f5) f1) (= (= (f3 (f4 (f6 ?v_0 ?v1)) (f6 ?v_0 ?v2)) f1) (= (f3 (f4 ?v2) ?v1) f1))))))
(assert (forall ((?v0 S7) (?v1 S7)) (=> (= (f25 (f26 ?v0) f24) f1) (=> (= (f25 (f26 f24) ?v1) f1) (= (f25 (f26 (f17 (f18 f23 ?v0) ?v1)) f24) f1)))))
(assert (forall ((?v0 S3) (?v1 S3)) (=> (= (f3 (f4 ?v0) f5) f1) (=> (= (f3 (f4 f5) ?v1) f1) (= (f3 (f4 (f6 (f7 f9 ?v0) ?v1)) f5) f1)))))
(assert (forall ((?v0 S3) (?v1 S3)) (=> (= (f3 (f4 ?v0) f5) f1) (=> (= (f3 (f4 ?v1) f5) f1) (= (f3 (f4 f5) (f6 (f7 f9 ?v0) ?v1)) f1)))))
(assert (forall ((?v0 S7) (?v1 S7) (?v2 S7)) (=> (= (f25 (f26 ?v0) ?v1) f1) (=> (= (f25 (f26 f24) ?v2) f1) (= (f25 (f26 (f17 (f18 f23 ?v0) ?v2)) (f17 (f18 f23 ?v1) ?v2)) f1)))))
(assert (forall ((?v0 S3) (?v1 S3) (?v2 S3)) (=> (= (f3 (f4 ?v0) ?v1) f1) (=> (= (f3 (f4 f5) ?v2) f1) (= (f3 (f4 (f6 (f7 f9 ?v0) ?v2)) (f6 (f7 f9 ?v1) ?v2)) f1)))))
(assert (forall ((?v0 S7) (?v1 S7) (?v2 S7)) (let ((?v_0 (f18 f23 ?v2))) (=> (= (f25 (f26 ?v0) ?v1) f1) (=> (= (f25 (f26 f24) ?v2) f1) (= (f25 (f26 (f17 ?v_0 ?v0)) (f17 ?v_0 ?v1)) f1))))))
(assert (forall ((?v0 S3) (?v1 S3) (?v2 S3)) (let ((?v_0 (f7 f9 ?v2))) (=> (= (f3 (f4 ?v0) ?v1) f1) (=> (= (f3 (f4 f5) ?v2) f1) (= (f3 (f4 (f6 ?v_0 ?v0)) (f6 ?v_0 ?v1)) f1))))))
(assert (forall ((?v0 S7) (?v1 S7) (?v2 S7)) (let ((?v_0 (f18 f23 ?v2))) (=> (= (f25 (f26 ?v0) ?v1) f1) (=> (= (f25 (f26 f24) ?v2) f1) (= (f25 (f26 (f17 ?v_0 ?v0)) (f17 ?v_0 ?v1)) f1))))))
(assert (forall ((?v0 S3) (?v1 S3) (?v2 S3)) (let ((?v_0 (f7 f9 ?v2))) (=> (= (f3 (f4 ?v0) ?v1) f1) (=> (= (f3 (f4 f5) ?v2) f1) (= (f3 (f4 (f6 ?v_0 ?v0)) (f6 ?v_0 ?v1)) f1))))))
(assert (forall ((?v0 S3) (?v1 S3) (?v2 S3)) (=> (= (f3 (f4 ?v0) ?v1) f1) (=> (= (f3 (f4 ?v2) f5) f1) (= (f3 (f4 (f6 (f7 f9 ?v1) ?v2)) (f6 (f7 f9 ?v0) ?v2)) f1)))))
(assert (forall ((?v0 S3) (?v1 S3) (?v2 S3)) (let ((?v_0 (f7 f9 ?v2))) (=> (= (f3 (f4 ?v0) ?v1) f1) (=> (= (f3 (f4 ?v2) f5) f1) (= (f3 (f4 (f6 ?v_0 ?v1)) (f6 ?v_0 ?v0)) f1))))))
(assert (forall ((?v0 S7) (?v1 S7) (?v2 S7)) (let ((?v_0 (f26 ?v1))) (=> (= (f25 (f26 f24) ?v0) f1) (=> (= (f25 ?v_0 ?v2) f1) (= (f25 ?v_0 (f17 (f18 f19 ?v0) ?v2)) f1))))))
(assert (forall ((?v0 S3) (?v1 S3) (?v2 S3)) (let ((?v_0 (f4 ?v1))) (=> (= (f3 (f4 f5) ?v0) f1) (=> (= (f3 ?v_0 ?v2) f1) (= (f3 ?v_0 (f6 (f7 f8 ?v0) ?v2)) f1))))))
(assert (not (= (f25 (f26 f20) f24) f1)))
(assert (not (= (f3 (f4 f15) f5) f1)))
(assert (= (f25 (f26 f24) f20) f1))
(assert (= (f3 (f4 f5) f15) f1))
(assert (forall ((?v0 S3) (?v1 S3)) (= (= (f6 (f7 f8 (f6 (f7 f9 ?v0) ?v0)) (f6 (f7 f9 ?v1) ?v1)) f5) (and (= ?v0 f5) (= ?v1 f5)))))
(assert (forall ((?v0 S7) (?v1 S7)) (let ((?v_0 (f26 f20))) (=> (= (f25 ?v_0 ?v0) f1) (=> (= (f25 ?v_0 ?v1) f1) (= (f25 ?v_0 (f17 (f18 f23 ?v0) ?v1)) f1))))))
(assert (forall ((?v0 S3) (?v1 S3)) (let ((?v_0 (f4 f15))) (=> (= (f3 ?v_0 ?v0) f1) (=> (= (f3 ?v_0 ?v1) f1) (= (f3 ?v_0 (f6 (f7 f9 ?v0) ?v1)) f1))))))
(assert (forall ((?v0 S7)) (= (f25 (f26 ?v0) (f17 (f18 f19 ?v0) f20)) f1)))
(assert (forall ((?v0 S3)) (= (f3 (f4 ?v0) (f6 (f7 f8 ?v0) f15)) f1)))
(assert (= f5 (f6 f10 f13)))
(assert (= (f17 (f18 f19 f20) f20) (f21 f22 (f6 f11 (f6 f12 f13)))))
(assert (forall ((?v0 S7)) (= (f17 (f18 f23 ?v0) (f21 f22 (f6 f11 (f6 f12 f13)))) (f17 (f18 f19 ?v0) ?v0))))
(assert (forall ((?v0 S7)) (= (f17 (f18 f23 (f21 f22 (f6 f11 (f6 f12 f13)))) ?v0) (f17 (f18 f19 ?v0) ?v0))))
(assert (let ((?v_1 (f6 (f7 f8 (f6 (f7 f9 (f6 f10 (f6 f11 (f6 f11 (f6 f12 f13))))) f14)) f15)) (?v_0 (f6 f10 f28))) (=> (not (= (f3 (f29 ?v_1) ?v_0) f1)) (not (= (f6 (f7 f27 ?v_0) ?v_1) f15)))))
(assert (= (f3 (f29 (f6 (f7 f8 (f6 (f7 f9 (f6 f10 (f6 f11 (f6 f11 (f6 f12 f13))))) f14)) f15)) (f6 f10 f28)) f1))
(assert (= (f25 (f26 f24) (f21 f22 (f6 f11 (f6 f12 f13)))) f1))
(assert (forall ((?v0 S7)) (= (f17 (f18 f19 ?v0) ?v0) (f17 (f18 f23 (f17 (f18 f19 f20) f20)) ?v0))))
(assert (forall ((?v0 S3)) (= (f6 (f7 f8 ?v0) ?v0) (f6 (f7 f9 (f6 (f7 f8 f15) f15)) ?v0))))
(assert (forall ((?v0 S7) (?v1 S7)) (= (f17 (f18 f19 ?v0) (f17 (f18 f23 ?v1) ?v0)) (f17 (f18 f23 (f17 (f18 f19 ?v1) f20)) ?v0))))
(assert (forall ((?v0 S3) (?v1 S3)) (= (f6 (f7 f8 ?v0) (f6 (f7 f9 ?v1) ?v0)) (f6 (f7 f9 (f6 (f7 f8 ?v1) f15)) ?v0))))
(assert (forall ((?v0 S7) (?v1 S7) (?v2 S7) (?v3 S7)) (let ((?v_0 (f18 f23 ?v0))) (= (f17 (f18 f23 (f17 ?v_0 ?v1)) (f17 (f18 f23 ?v2) ?v3)) (f17 (f18 f23 (f17 ?v_0 ?v2)) (f17 (f18 f23 ?v1) ?v3))))))
(assert (forall ((?v0 S3) (?v1 S3) (?v2 S3) (?v3 S3)) (let ((?v_0 (f7 f9 ?v0))) (= (f6 (f7 f9 (f6 ?v_0 ?v1)) (f6 (f7 f9 ?v2) ?v3)) (f6 (f7 f9 (f6 ?v_0 ?v2)) (f6 (f7 f9 ?v1) ?v3))))))
(assert (forall ((?v0 S7) (?v1 S7) (?v2 S7) (?v3 S7)) (let ((?v_1 (f18 f23 (f17 (f18 f23 ?v0) ?v1))) (?v_0 (f18 f23 ?v2))) (= (f17 ?v_1 (f17 ?v_0 ?v3)) (f17 ?v_0 (f17 ?v_1 ?v3))))))
(assert (forall ((?v0 S3) (?v1 S3) (?v2 S3) (?v3 S3)) (let ((?v_1 (f7 f9 (f6 (f7 f9 ?v0) ?v1))) (?v_0 (f7 f9 ?v2))) (= (f6 ?v_1 (f6 ?v_0 ?v3)) (f6 ?v_0 (f6 ?v_1 ?v3))))))
(assert (forall ((?v0 S7) (?v1 S7) (?v2 S7) (?v3 S7)) (let ((?v_0 (f18 f23 ?v0)) (?v_1 (f17 (f18 f23 ?v2) ?v3))) (= (f17 (f18 f23 (f17 ?v_0 ?v1)) ?v_1) (f17 ?v_0 (f17 (f18 f23 ?v1) ?v_1))))))
(assert (forall ((?v0 S3) (?v1 S3) (?v2 S3) (?v3 S3)) (let ((?v_0 (f7 f9 ?v0)) (?v_1 (f6 (f7 f9 ?v2) ?v3))) (= (f6 (f7 f9 (f6 ?v_0 ?v1)) ?v_1) (f6 ?v_0 (f6 (f7 f9 ?v1) ?v_1))))))
(assert (forall ((?v0 S7) (?v1 S7) (?v2 S7)) (let ((?v_0 (f18 f23 ?v0))) (= (f17 (f18 f23 (f17 ?v_0 ?v1)) ?v2) (f17 (f18 f23 (f17 ?v_0 ?v2)) ?v1)))))
(assert (forall ((?v0 S3) (?v1 S3) (?v2 S3)) (let ((?v_0 (f7 f9 ?v0))) (= (f6 (f7 f9 (f6 ?v_0 ?v1)) ?v2) (f6 (f7 f9 (f6 ?v_0 ?v2)) ?v1)))))
(assert (forall ((?v0 S7) (?v1 S7) (?v2 S7)) (let ((?v_0 (f18 f23 ?v0))) (= (f17 (f18 f23 (f17 ?v_0 ?v1)) ?v2) (f17 ?v_0 (f17 (f18 f23 ?v1) ?v2))))))
(assert (forall ((?v0 S3) (?v1 S3) (?v2 S3)) (let ((?v_0 (f7 f9 ?v0))) (= (f6 (f7 f9 (f6 ?v_0 ?v1)) ?v2) (f6 ?v_0 (f6 (f7 f9 ?v1) ?v2))))))
(assert (forall ((?v0 S7) (?v1 S7) (?v2 S7)) (let ((?v_0 (f18 f23 ?v0))) (= (f17 ?v_0 (f17 (f18 f23 ?v1) ?v2)) (f17 (f18 f23 (f17 ?v_0 ?v1)) ?v2)))))
(assert (forall ((?v0 S3) (?v1 S3) (?v2 S3)) (let ((?v_0 (f7 f9 ?v0))) (= (f6 ?v_0 (f6 (f7 f9 ?v1) ?v2)) (f6 (f7 f9 (f6 ?v_0 ?v1)) ?v2)))))
(assert (forall ((?v0 S7) (?v1 S7) (?v2 S7)) (let ((?v_1 (f18 f23 ?v0)) (?v_0 (f18 f23 ?v1))) (= (f17 ?v_1 (f17 ?v_0 ?v2)) (f17 ?v_0 (f17 ?v_1 ?v2))))))
(assert (forall ((?v0 S3) (?v1 S3) (?v2 S3)) (let ((?v_1 (f7 f9 ?v0)) (?v_0 (f7 f9 ?v1))) (= (f6 ?v_1 (f6 ?v_0 ?v2)) (f6 ?v_0 (f6 ?v_1 ?v2))))))
(assert (forall ((?v0 S7) (?v1 S7)) (= (f17 (f18 f23 ?v0) ?v1) (f17 (f18 f23 ?v1) ?v0))))
(assert (forall ((?v0 S3) (?v1 S3)) (= (f6 (f7 f9 ?v0) ?v1) (f6 (f7 f9 ?v1) ?v0))))
(assert (forall ((?v0 S7) (?v1 S7) (?v2 S7) (?v3 S7)) (let ((?v_0 (f18 f19 ?v0))) (= (f17 (f18 f19 (f17 ?v_0 ?v1)) (f17 (f18 f19 ?v2) ?v3)) (f17 (f18 f19 (f17 ?v_0 ?v2)) (f17 (f18 f19 ?v1) ?v3))))))
(assert (forall ((?v0 S3) (?v1 S3) (?v2 S3) (?v3 S3)) (let ((?v_0 (f7 f8 ?v0))) (= (f6 (f7 f8 (f6 ?v_0 ?v1)) (f6 (f7 f8 ?v2) ?v3)) (f6 (f7 f8 (f6 ?v_0 ?v2)) (f6 (f7 f8 ?v1) ?v3))))))
(assert (forall ((?v0 S7) (?v1 S7) (?v2 S7)) (let ((?v_0 (f18 f19 ?v0))) (= (f17 (f18 f19 (f17 ?v_0 ?v1)) ?v2) (f17 (f18 f19 (f17 ?v_0 ?v2)) ?v1)))))
(assert (forall ((?v0 S3) (?v1 S3) (?v2 S3)) (let ((?v_0 (f7 f8 ?v0))) (= (f6 (f7 f8 (f6 ?v_0 ?v1)) ?v2) (f6 (f7 f8 (f6 ?v_0 ?v2)) ?v1)))))
(assert (forall ((?v0 S7) (?v1 S7) (?v2 S7)) (let ((?v_0 (f18 f19 ?v0))) (= (f17 (f18 f19 (f17 ?v_0 ?v1)) ?v2) (f17 ?v_0 (f17 (f18 f19 ?v1) ?v2))))))
(assert (forall ((?v0 S3) (?v1 S3) (?v2 S3)) (let ((?v_0 (f7 f8 ?v0))) (= (f6 (f7 f8 (f6 ?v_0 ?v1)) ?v2) (f6 ?v_0 (f6 (f7 f8 ?v1) ?v2))))))
(assert (forall ((?v0 S7) (?v1 S7) (?v2 S7)) (let ((?v_0 (f18 f19 ?v0))) (= (f17 ?v_0 (f17 (f18 f19 ?v1) ?v2)) (f17 (f18 f19 (f17 ?v_0 ?v1)) ?v2)))))
(assert (forall ((?v0 S3) (?v1 S3) (?v2 S3)) (let ((?v_0 (f7 f8 ?v0))) (= (f6 ?v_0 (f6 (f7 f8 ?v1) ?v2)) (f6 (f7 f8 (f6 ?v_0 ?v1)) ?v2)))))
(assert (forall ((?v0 S7) (?v1 S7) (?v2 S7)) (let ((?v_1 (f18 f19 ?v0)) (?v_0 (f18 f19 ?v1))) (= (f17 ?v_1 (f17 ?v_0 ?v2)) (f17 ?v_0 (f17 ?v_1 ?v2))))))
(assert (forall ((?v0 S3) (?v1 S3) (?v2 S3)) (let ((?v_1 (f7 f8 ?v0)) (?v_0 (f7 f8 ?v1))) (= (f6 ?v_1 (f6 ?v_0 ?v2)) (f6 ?v_0 (f6 ?v_1 ?v2))))))
(assert (forall ((?v0 S7) (?v1 S7)) (= (f17 (f18 f19 ?v0) ?v1) (f17 (f18 f19 ?v1) ?v0))))
(assert (forall ((?v0 S3) (?v1 S3)) (= (f6 (f7 f8 ?v0) ?v1) (f6 (f7 f8 ?v1) ?v0))))
(assert (forall ((?v0 S7)) (= (f17 (f18 f23 ?v0) f24) f24)))
(assert (forall ((?v0 S3)) (= (f6 (f7 f9 ?v0) f5) f5)))
(assert (forall ((?v0 S7)) (= (f17 (f18 f23 f24) ?v0) f24)))
(assert (forall ((?v0 S3)) (= (f6 (f7 f9 f5) ?v0) f5)))
(assert (forall ((?v0 S7) (?v1 S7)) (= (= ?v0 (f17 (f18 f19 ?v0) ?v1)) (= ?v1 f24))))
(assert (forall ((?v0 S3) (?v1 S3)) (= (= ?v0 (f6 (f7 f8 ?v0) ?v1)) (= ?v1 f5))))
(assert (forall ((?v0 S7)) (= (f17 (f18 f19 ?v0) f24) ?v0)))
(assert (forall ((?v0 S3)) (= (f6 (f7 f8 ?v0) f5) ?v0)))
(assert (forall ((?v0 S7)) (= (f17 (f18 f19 f24) ?v0) ?v0)))
(assert (forall ((?v0 S3)) (= (f6 (f7 f8 f5) ?v0) ?v0)))
(assert (forall ((?v0 S7) (?v1 S7) (?v2 S7) (?v3 S7)) (let ((?v_0 (f18 f23 ?v0)) (?v_1 (f18 f23 ?v2))) (= (= (f17 (f18 f19 (f17 ?v_0 ?v1)) (f17 ?v_1 ?v3)) (f17 (f18 f19 (f17 ?v_0 ?v3)) (f17 ?v_1 ?v1))) (or (= ?v0 ?v2) (= ?v1 ?v3))))))
(assert (forall ((?v0 S3) (?v1 S3) (?v2 S3) (?v3 S3)) (let ((?v_0 (f7 f9 ?v0)) (?v_1 (f7 f9 ?v2))) (= (= (f6 (f7 f8 (f6 ?v_0 ?v1)) (f6 ?v_1 ?v3)) (f6 (f7 f8 (f6 ?v_0 ?v3)) (f6 ?v_1 ?v1))) (or (= ?v0 ?v2) (= ?v1 ?v3))))))
(assert (forall ((?v0 S7) (?v1 S7) (?v2 S7)) (= (f17 (f18 f19 (f17 (f18 f23 ?v0) ?v1)) (f17 (f18 f23 ?v2) ?v1)) (f17 (f18 f23 (f17 (f18 f19 ?v0) ?v2)) ?v1))))
(assert (forall ((?v0 S3) (?v1 S3) (?v2 S3)) (= (f6 (f7 f8 (f6 (f7 f9 ?v0) ?v1)) (f6 (f7 f9 ?v2) ?v1)) (f6 (f7 f9 (f6 (f7 f8 ?v0) ?v2)) ?v1))))
(assert (forall ((?v0 S7) (?v1 S7) (?v2 S7)) (= (f17 (f18 f23 (f17 (f18 f19 ?v0) ?v1)) ?v2) (f17 (f18 f19 (f17 (f18 f23 ?v0) ?v2)) (f17 (f18 f23 ?v1) ?v2)))))
(assert (forall ((?v0 S3) (?v1 S3) (?v2 S3)) (= (f6 (f7 f9 (f6 (f7 f8 ?v0) ?v1)) ?v2) (f6 (f7 f8 (f6 (f7 f9 ?v0) ?v2)) (f6 (f7 f9 ?v1) ?v2)))))
(assert (forall ((?v0 S7) (?v1 S7) (?v2 S7) (?v3 S7)) (let ((?v_0 (f18 f23 ?v0)) (?v_1 (f18 f23 ?v1))) (= (and (not (= ?v0 ?v1)) (not (= ?v2 ?v3))) (not (= (f17 (f18 f19 (f17 ?v_0 ?v2)) (f17 ?v_1 ?v3)) (f17 (f18 f19 (f17 ?v_0 ?v3)) (f17 ?v_1 ?v2))))))))
(assert (forall ((?v0 S3) (?v1 S3) (?v2 S3) (?v3 S3)) (let ((?v_0 (f7 f9 ?v0)) (?v_1 (f7 f9 ?v1))) (= (and (not (= ?v0 ?v1)) (not (= ?v2 ?v3))) (not (= (f6 (f7 f8 (f6 ?v_0 ?v2)) (f6 ?v_1 ?v3)) (f6 (f7 f8 (f6 ?v_0 ?v3)) (f6 ?v_1 ?v2))))))))
(assert (forall ((?v0 S7) (?v1 S7) (?v2 S7)) (let ((?v_0 (f18 f23 ?v0))) (= (f17 ?v_0 (f17 (f18 f19 ?v1) ?v2)) (f17 (f18 f19 (f17 ?v_0 ?v1)) (f17 ?v_0 ?v2))))))
(assert (forall ((?v0 S3) (?v1 S3) (?v2 S3)) (let ((?v_0 (f7 f9 ?v0))) (= (f6 ?v_0 (f6 (f7 f8 ?v1) ?v2)) (f6 (f7 f8 (f6 ?v_0 ?v1)) (f6 ?v_0 ?v2))))))
(assert (forall ((?v0 S7)) (= (f17 (f18 f23 ?v0) f20) ?v0)))
(assert (forall ((?v0 S3)) (= (f6 (f7 f9 ?v0) f15) ?v0)))
(assert (forall ((?v0 S7)) (= (f17 (f18 f23 f20) ?v0) ?v0)))
(assert (forall ((?v0 S3)) (= (f6 (f7 f9 f15) ?v0) ?v0)))
(assert (forall ((?v0 S7) (?v1 S7) (?v2 S7) (?v3 S7) (?v4 S7)) (let ((?v_0 (f18 f23 ?v0))) (=> (not (= ?v0 f24)) (=> (and (= ?v1 ?v2) (not (= ?v3 ?v4))) (not (= (f17 (f18 f19 ?v1) (f17 ?v_0 ?v3)) (f17 (f18 f19 ?v2) (f17 ?v_0 ?v4)))))))))
(assert (forall ((?v0 S3) (?v1 S3) (?v2 S3) (?v3 S3) (?v4 S3)) (let ((?v_0 (f7 f9 ?v0))) (=> (not (= ?v0 f5)) (=> (and (= ?v1 ?v2) (not (= ?v3 ?v4))) (not (= (f6 (f7 f8 ?v1) (f6 ?v_0 ?v3)) (f6 (f7 f8 ?v2) (f6 ?v_0 ?v4)))))))))
(assert (forall ((?v0 S7) (?v1 S7)) (= (f17 (f18 f19 (f17 (f18 f23 ?v0) ?v1)) ?v1) (f17 (f18 f23 (f17 (f18 f19 ?v0) f20)) ?v1))))
(assert (forall ((?v0 S3) (?v1 S3)) (= (f6 (f7 f8 (f6 (f7 f9 ?v0) ?v1)) ?v1) (f6 (f7 f9 (f6 (f7 f8 ?v0) f15)) ?v1))))
(assert (forall ((?v0 S7)) (=> (= (f25 (f26 ?v0) f24) f1) false)))
(assert (forall ((?v0 S7) (?v1 S7)) (=> (= ?v0 (f17 (f18 f23 ?v0) ?v1)) (or (= ?v1 f20) (= ?v0 f24)))))
(assert (forall ((?v0 S7) (?v1 S7) (?v2 S7)) (let ((?v_0 (f18 f23 ?v2))) (=> (= (f25 (f26 ?v0) ?v1) f1) (=> (= (f25 (f26 f24) ?v2) f1) (= (f25 (f26 (f17 ?v_0 ?v0)) (f17 ?v_0 ?v1)) f1))))))
(assert (forall ((?v0 S7)) (not (= (f25 (f26 ?v0) ?v0) f1))))
(assert (forall ((?v0 S7) (?v1 S7)) (= (not (= ?v0 ?v1)) (or (= (f25 (f26 ?v0) ?v1) f1) (= (f25 (f26 ?v1) ?v0) f1)))))
(assert (forall ((?v0 S7) (?v1 S7)) (=> (not (= ?v0 ?v1)) (=> (=> (= (f25 (f26 ?v0) ?v1) f1) false) (=> (=> (= (f25 (f26 ?v1) ?v0) f1) false) false)))))
(assert (forall ((?v0 S7)) (=> (= (f25 (f26 ?v0) ?v0) f1) false)))
(assert (forall ((?v0 S7) (?v1 S7)) (=> (= (f25 (f26 ?v0) ?v1) f1) (not (= ?v1 ?v0)))))
(assert (forall ((?v0 S7) (?v1 S7)) (=> (= (f25 (f26 ?v0) ?v1) f1) (not (= ?v0 ?v1)))))
(assert (forall ((?v0 S7) (?v1 S7) (?v2 S11)) (let ((?v_0 (= (f25 (f30 ?v2 ?v1) ?v0) f1))) (=> (=> (= (f25 (f26 ?v0) ?v1) f1) ?v_0) (=> (=> (= ?v0 ?v1) ?v_0) (=> (=> (= (f25 (f26 ?v1) ?v0) f1) ?v_0) ?v_0))))))
(assert (forall ((?v0 S7) (?v1 S7)) (= (f17 (f18 f19 ?v0) ?v1) (f17 (f18 f19 ?v1) ?v0))))
(assert (forall ((?v0 S7) (?v1 S7) (?v2 S7)) (let ((?v_1 (f18 f19 ?v0)) (?v_0 (f18 f19 ?v1))) (= (f17 ?v_1 (f17 ?v_0 ?v2)) (f17 ?v_0 (f17 ?v_1 ?v2))))))
(assert (forall ((?v0 S7) (?v1 S7) (?v2 S7)) (let ((?v_0 (f18 f19 ?v0))) (= (f17 (f18 f19 (f17 ?v_0 ?v1)) ?v2) (f17 ?v_0 (f17 (f18 f19 ?v1) ?v2))))))
(assert (forall ((?v0 S7) (?v1 S7) (?v2 S7)) (let ((?v_0 (f18 f19 ?v0))) (= (= (f17 ?v_0 ?v1) (f17 ?v_0 ?v2)) (= ?v1 ?v2)))))
(assert (forall ((?v0 S7) (?v1 S7) (?v2 S7)) (= (= (f17 (f18 f19 ?v0) ?v1) (f17 (f18 f19 ?v2) ?v1)) (= ?v0 ?v2))))
(assert (forall ((?v0 S7) (?v1 S7)) (= (f17 (f18 f23 ?v0) ?v1) (f17 (f18 f23 ?v1) ?v0))))
(assert (forall ((?v0 S7) (?v1 S7) (?v2 S7)) (let ((?v_0 (f18 f23 ?v0))) (= (f17 (f18 f23 (f17 ?v_0 ?v1)) ?v2) (f17 ?v_0 (f17 (f18 f23 ?v1) ?v2))))))
(assert (forall ((?v0 S7)) (not (= (f25 (f26 ?v0) f24) f1))))
(assert (forall ((?v0 S7)) (= (not (= ?v0 f24)) (= (f25 (f26 f24) ?v0) f1))))
(assert (forall ((?v0 S7)) (= (= (f25 (f26 ?v0) f24) f1) false)))
(assert (forall ((?v0 S7) (?v1 S7)) (=> (= (f25 (f26 ?v0) ?v1) f1) (not (= ?v1 f24)))))
(assert (forall ((?v0 S7)) (=> (=> (= ?v0 f24) false) (= (f25 (f26 f24) ?v0) f1))))
(assert (forall ((?v0 S7)) (= (f17 (f18 f19 f24) ?v0) ?v0)))
(assert (forall ((?v0 S7)) (= (f17 (f18 f19 ?v0) f24) ?v0)))
(assert (forall ((?v0 S7) (?v1 S7)) (= (= (f17 (f18 f19 ?v0) ?v1) f24) (and (= ?v0 f24) (= ?v1 f24)))))
(assert (forall ((?v0 S7) (?v1 S7)) (=> (= (f17 (f18 f19 ?v0) ?v1) ?v0) (= ?v1 f24))))
(assert (forall ((?v0 S7)) (= (f17 (f18 f23 f24) ?v0) f24)))
(assert (forall ((?v0 S7)) (= (f17 (f18 f23 ?v0) f24) f24)))
(assert (forall ((?v0 S7) (?v1 S7)) (= (= (f17 (f18 f23 ?v0) ?v1) f24) (or (= ?v0 f24) (= ?v1 f24)))))
(assert (forall ((?v0 S7) (?v1 S7) (?v2 S7)) (let ((?v_0 (f18 f23 ?v0))) (= (= (f17 ?v_0 ?v1) (f17 ?v_0 ?v2)) (or (= ?v1 ?v2) (= ?v0 f24))))))
(assert (forall ((?v0 S7) (?v1 S7) (?v2 S7)) (= (= (f17 (f18 f23 ?v0) ?v1) (f17 (f18 f23 ?v2) ?v1)) (or (= ?v0 ?v2) (= ?v1 f24)))))
(assert (forall ((?v0 S7) (?v1 S7)) (not (= (f25 (f26 (f17 (f18 f19 ?v0) ?v1)) ?v0) f1))))
(assert (forall ((?v0 S7) (?v1 S7)) (not (= (f25 (f26 (f17 (f18 f19 ?v0) ?v1)) ?v1) f1))))
(assert (forall ((?v0 S7) (?v1 S7) (?v2 S7)) (let ((?v_0 (f18 f19 ?v0))) (= (= (f25 (f26 (f17 ?v_0 ?v1)) (f17 ?v_0 ?v2)) f1) (= (f25 (f26 ?v1) ?v2) f1)))))
(assert (forall ((?v0 S7) (?v1 S7) (?v2 S7)) (let ((?v_0 (f26 ?v0))) (=> (= (f25 ?v_0 ?v1) f1) (= (f25 ?v_0 (f17 (f18 f19 ?v1) ?v2)) f1)))))
(assert (forall ((?v0 S7) (?v1 S7) (?v2 S7)) (let ((?v_0 (f26 ?v0))) (=> (= (f25 ?v_0 ?v1) f1) (= (f25 ?v_0 (f17 (f18 f19 ?v2) ?v1)) f1)))))
(assert (forall ((?v0 S7) (?v1 S7) (?v2 S7)) (=> (= (f25 (f26 ?v0) ?v1) f1) (= (f25 (f26 (f17 (f18 f19 ?v0) ?v2)) (f17 (f18 f19 ?v1) ?v2)) f1))))
(assert (forall ((?v0 S7) (?v1 S7) (?v2 S7) (?v3 S7)) (=> (= (f25 (f26 ?v0) ?v1) f1) (=> (= (f25 (f26 ?v2) ?v3) f1) (= (f25 (f26 (f17 (f18 f19 ?v0) ?v2)) (f17 (f18 f19 ?v1) ?v3)) f1)))))
(assert (forall ((?v0 S7) (?v1 S7) (?v2 S7) (?v3 S7)) (=> (= (f25 (f26 ?v0) ?v1) f1) (=> (= (f17 (f18 f19 ?v2) ?v1) (f17 (f18 f19 ?v0) ?v3)) (= (f25 (f26 ?v2) ?v3) f1)))))
(assert (forall ((?v0 S7) (?v1 S7) (?v2 S7)) (=> (= (f25 (f26 (f17 (f18 f19 ?v0) ?v1)) ?v2) f1) (= (f25 (f26 ?v0) ?v2) f1))))
(assert (forall ((?v0 S7) (?v1 S7) (?v2 S7)) (let ((?v_0 (f18 f23 ?v0))) (= (f17 ?v_0 (f17 (f18 f19 ?v1) ?v2)) (f17 (f18 f19 (f17 ?v_0 ?v1)) (f17 ?v_0 ?v2))))))
(assert (forall ((?v0 S7) (?v1 S7) (?v2 S7)) (= (f17 (f18 f23 (f17 (f18 f19 ?v0) ?v1)) ?v2) (f17 (f18 f19 (f17 (f18 f23 ?v0) ?v2)) (f17 (f18 f23 ?v1) ?v2)))))
(assert (forall ((?v0 S7)) (= (f17 (f18 f23 f20) ?v0) ?v0)))
(assert (forall ((?v0 S7) (?v1 S7)) (= (= f20 (f17 (f18 f23 ?v0) ?v1)) (and (= ?v0 f20) (= ?v1 f20)))))
(assert (forall ((?v0 S7)) (= (f17 (f18 f23 ?v0) f20) ?v0)))
(assert (forall ((?v0 S7) (?v1 S7)) (= (= (f17 (f18 f23 ?v0) ?v1) f20) (and (= ?v0 f20) (= ?v1 f20)))))
(assert (forall ((?v0 S7) (?v1 S7)) (let ((?v_0 (f26 f24))) (= (= (f25 ?v_0 (f17 (f18 f19 ?v0) ?v1)) f1) (or (= (f25 ?v_0 ?v0) f1) (= (f25 ?v_0 ?v1) f1))))))
(check-sat)
(exit)
